WARNING: for repeatability, setting FPU to use double precision
============================[ Problem Statistics ]=============================
|                                                                             |
|  Number of variables:           125                                         |
|  Number of clauses:            1282                                         |
|  Parse time:                   0.00 s                                       |
|                                                                             |
============================[ Search Statistics ]==============================
| Conflicts |          ORIGINAL         |          LEARNT          | Progress |
|           |    Vars  Clauses Literals |    Limit  Clauses Lit/Cl |          |
===============================================================================
===============================================================================
restarts              : 1
conflicts             : 1              (498 /sec)
decisions             : 9              (0.00 % random) (4484 /sec)
propagations          : 147            (73244 /sec)
conflict literals     : 3              (0.00 % deleted)
Memory used           : 21.00 MB
CPU time              : 0.002007 s

SATISFIABLE
